Li3 Ni3 O6                              
   1.00000000000000     
    10.9277429786704392   -2.5833374347882314    0.3341318581973161
    -2.3367163401561797   10.3925988226124986    0.0483052317217643
     0.2003951370974281    0.1317775424160032   14.0141886008862251
   Li   Ni   O 
    48    48    96
Direct
  0.0833332469999988  0.1666667482000008  0.1666670039999971
  0.0833332469999988  0.4166667482000008  0.1666670039999971
  0.0833332469999988  0.6666667482000008  0.1666670039999971
  0.0833332469999988  0.9166667482000008  0.1666670039999971
  0.3333332469999988  0.1666667482000008  0.1666670039999971
  0.3333332469999988  0.4166667482000008  0.1666670039999971
  0.3333332469999988  0.6666667482000008  0.1666670039999971
  0.3333332469999988  0.9166667482000008  0.1666670039999971
  0.5833332469999988  0.1666667482000008  0.1666670039999971
  0.5833332469999988  0.4166667482000008  0.1666670039999971
  0.5833332469999988  0.6666667482000008  0.1666670039999971
  0.5833332469999988  0.9166667482000008  0.1666670039999971
  0.8333332469999988  0.1666667482000008  0.1666670039999971
  0.8333332469999988  0.4166667482000008  0.1666670039999971
  0.8333332469999988  0.6666667482000008  0.1666670039999971
  0.8333332469999988  0.9166667482000008  0.1666670039999971
  0.0000000000000000  0.0000000000000000  0.5000000000000000
  0.0000000000000000  0.2500000000000000  0.5000000000000000
  0.0000000000000000  0.5000000000000000  0.5000000000000000
  0.0000000000000000  0.7500000000000000  0.5000000000000000
  0.2500000000000000  0.0000000000000000  0.5000000000000000
  0.2500000000000000  0.2500000000000000  0.5000000000000000
  0.2500000000000000  0.5000000000000000  0.5000000000000000
  0.2500000000000000  0.7500000000000000  0.5000000000000000
  0.5000000000000000  0.0000000000000000  0.5000000000000000
  0.5000000000000000  0.2500000000000000  0.5000000000000000
  0.5000000000000000  0.5000000000000000  0.5000000000000000
  0.5000000000000000  0.7500000000000000  0.5000000000000000
  0.7500000000000000  0.0000000000000000  0.5000000000000000
  0.7500000000000000  0.2500000000000000  0.5000000000000000
  0.7500000000000000  0.5000000000000000  0.5000000000000000
  0.7500000000000000  0.7500000000000000  0.5000000000000000
  0.1666667479999973  0.0833332495000008  0.8333340080000013
  0.1666667479999973  0.3333332495000008  0.8333340080000013
  0.1666667479999973  0.5833332495000008  0.8333340080000013
  0.1666667479999973  0.8333332495000008  0.8333340080000013
  0.4166667479999973  0.0833332495000008  0.8333340080000013
  0.4166667479999973  0.3333332495000008  0.8333340080000013
  0.4166667479999973  0.5833332495000008  0.8333340080000013
  0.4166667479999973  0.8333332495000008  0.8333340080000013
  0.6666667479999973  0.0833332495000008  0.8333340080000013
  0.6666667479999973  0.3333332495000008  0.8333340080000013
  0.6666667479999973  0.5833332495000008  0.8333340080000013
  0.6666667479999973  0.8333332495000008  0.8333340080000013
  0.9166667479999973  0.0833332495000008  0.8333340080000013
  0.9166667479999973  0.3333332495000008  0.8333340080000013
  0.9166667479999973  0.5833332495000008  0.8333340080000013
  0.9166667479999973  0.8333332495000008  0.8333340080000013
  0.0000000000000000  0.0000000000000000  0.0000000000000000
  0.0000000000000000  0.2500000000000000  0.0000000000000000
  0.0000000000000000  0.5000000000000000  0.0000000000000000
  0.0000000000000000  0.7500000000000000  0.0000000000000000
  0.2500000000000000  0.0000000000000000  0.0000000000000000
  0.2500000000000000  0.2500000000000000  0.0000000000000000
  0.2500000000000000  0.5000000000000000  0.0000000000000000
  0.2500000000000000  0.7500000000000000  0.0000000000000000
  0.5000000000000000  0.0000000000000000  0.0000000000000000
  0.5000000000000000  0.2500000000000000  0.0000000000000000
  0.5000000000000000  0.5000000000000000  0.0000000000000000
  0.5000000000000000  0.7500000000000000  0.0000000000000000
  0.7500000000000000  0.0000000000000000  0.0000000000000000
  0.7500000000000000  0.2500000000000000  0.0000000000000000
  0.7500000000000000  0.5000000000000000  0.0000000000000000
  0.7500000000000000  0.7500000000000000  0.0000000000000000
  0.1666667479999973  0.0833332495000008  0.3333329789999979
  0.1666667479999973  0.3333332495000008  0.3333329789999979
  0.1666667479999973  0.5833332495000008  0.3333329789999979
  0.1666667479999973  0.8333332495000008  0.3333329789999979
  0.4166667479999973  0.0833332495000008  0.3333329789999979
  0.4166667479999973  0.3333332495000008  0.3333329789999979
  0.4166667479999973  0.5833332495000008  0.3333329789999979
  0.4166667479999973  0.8333332495000008  0.3333329789999979
  0.6666667479999973  0.0833332495000008  0.3333329789999979
  0.6666667479999973  0.3333332495000008  0.3333329789999979
  0.6666667479999973  0.5833332495000008  0.3333329789999979
  0.6666667479999973  0.8333332495000008  0.3333329789999979
  0.9166667479999973  0.0833332495000008  0.3333329789999979
  0.9166667479999973  0.3333332495000008  0.3333329789999979
  0.9166667479999973  0.5833332495000008  0.3333329789999979
  0.9166667479999973  0.8333332495000008  0.3333329789999979
  0.0833332469999988  0.1666667482000008  0.6666669540000001
  0.0833332469999988  0.4166667482000008  0.6666669540000001
  0.0833332469999988  0.6666667482000008  0.6666669540000001
  0.0833332469999988  0.9166667482000008  0.6666669540000001
  0.3333332469999988  0.1666667482000008  0.6666669540000001
  0.3333332469999988  0.4166667482000008  0.6666669540000001
  0.3333332469999988  0.6666667482000008  0.6666669540000001
  0.3333332469999988  0.9166667482000008  0.6666669540000001
  0.5833332469999988  0.1666667482000008  0.6666669540000001
  0.5833332469999988  0.4166667482000008  0.6666669540000001
  0.5833332469999988  0.6666667482000008  0.6666669540000001
  0.5833332469999988  0.9166667482000008  0.6666669540000001
  0.8333332469999988  0.1666667482000008  0.6666669540000001
  0.8333332469999988  0.4166667482000008  0.6666669540000001
  0.8333332469999988  0.6666667482000008  0.6666669540000001
  0.8333332469999988  0.9166667482000008  0.6666669540000001
 -0.0062509281276484 -0.0039242308277160  0.2589449940056872
 -0.0062509281276484  0.2460757691722840  0.2589449940056872
 -0.0062509281276484  0.4960757691722840  0.2589449940056872
 -0.0062509281276484  0.7460757691722841  0.2589449940056872
  0.2437490718723516 -0.0039242308277160  0.2589449940056872
  0.2437490718723516  0.2460757691722840  0.2589449940056872
  0.2437490718723516  0.4960757691722840  0.2589449940056872
  0.2437490718723516  0.7460757691722841  0.2589449940056872
  0.4937490718723515 -0.0039242308277159  0.2589449940056872
  0.4937490718723515  0.2460757691722840  0.2589449940056872
  0.4937490718723515  0.4960757691722840  0.2589449940056872
  0.4937490718723515  0.7460757691722841  0.2589449940056872
  0.7437490718723516 -0.0039242308277159  0.2589449940056872
  0.7437490718723516  0.2460757691722840  0.2589449940056872
  0.7437490718723516  0.4960757691722840  0.2589449940056872
  0.7437490718723516  0.7460757691722841  0.2589449940056872
  0.1729176761276457  0.0872574803277167  0.0743879849943178
  0.1729176761276457  0.3372574803277167  0.0743879849943178
  0.1729176761276457  0.5872574803277166  0.0743879849943178
  0.1729176761276457  0.8372574803277166  0.0743879849943178
  0.4229176761276457  0.0872574803277167  0.0743879849943178
  0.4229176761276457  0.3372574803277167  0.0743879849943178
  0.4229176761276457  0.5872574803277166  0.0743879849943178
  0.4229176761276457  0.8372574803277166  0.0743879849943178
  0.6729176761276456  0.0872574803277167  0.0743879849943178
  0.6729176761276456  0.3372574803277167  0.0743879849943178
  0.6729176761276456  0.5872574803277166  0.0743879849943178
  0.6729176761276456  0.8372574803277166  0.0743879849943178
  0.9229176761276456  0.0872574803277167  0.0743879849943178
  0.9229176761276456  0.3372574803277167  0.0743879849943178
  0.9229176761276456  0.5872574803277166  0.0743879849943178
  0.9229176761276456  0.8372574803277166  0.0743879849943178
  0.1604158198723488  0.0794090186722848  0.5922779900056827
  0.1604158198723488  0.3294090186722847  0.5922779900056827
  0.1604158198723488  0.5794090186722849  0.5922779900056827
  0.1604158198723488  0.8294090186722849  0.5922779900056827
  0.4104158198723488  0.0794090186722848  0.5922779900056827
  0.4104158198723488  0.3294090186722847  0.5922779900056827
  0.4104158198723488  0.5794090186722849  0.5922779900056827
  0.4104158198723488  0.8294090186722849  0.5922779900056827
  0.6604158198723489  0.0794090186722848  0.5922779900056827
  0.6604158198723489  0.3294090186722847  0.5922779900056827
  0.6604158198723489  0.5794090186722849  0.5922779900056827
  0.6604158198723489  0.8294090186722849  0.5922779900056827
  0.9104158198723489  0.0794090186722849  0.5922779900056827
  0.9104158198723489  0.3294090186722847  0.5922779900056827
  0.9104158198723489  0.5794090186722849  0.5922779900056827
  0.9104158198723489  0.8294090186722849  0.5922779900056827
  0.0895841751276472  0.1705909790277167  0.4077219769943178
  0.0895841751276472  0.4205909790277168  0.4077219769943178
  0.0895841751276472  0.6705909790277167  0.4077219769943178
  0.0895841751276472  0.9205909790277167  0.4077219769943178
  0.3395841751276472  0.1705909790277168  0.4077219769943178
  0.3395841751276472  0.4205909790277168  0.4077219769943178
  0.3395841751276472  0.6705909790277167  0.4077219769943178
  0.3395841751276472  0.9205909790277167  0.4077219769943178
  0.5895841751276472  0.1705909790277168  0.4077219769943178
  0.5895841751276472  0.4205909790277168  0.4077219769943178
  0.5895841751276472  0.6705909790277167  0.4077219769943178
  0.5895841751276472  0.9205909790277167  0.4077219769943178
  0.8395841751276472  0.1705909790277168  0.4077219769943178
  0.8395841751276472  0.4205909790277168  0.4077219769943178
  0.8395841751276472  0.6705909790277167  0.4077219769943178
  0.8395841751276472  0.9205909790277167  0.4077219769943178
  0.0770823188723503  0.1627425173722849  0.9256120310056832
  0.0770823188723503  0.4127425173722848  0.9256120310056832
  0.0770823188723503  0.6627425173722850  0.9256120310056832
  0.0770823188723503  0.9127425173722850  0.9256120310056832
  0.3270823188723503  0.1627425173722849  0.9256120310056832
  0.3270823188723503  0.4127425173722848  0.9256120310056832
  0.3270823188723503  0.6627425173722850  0.9256120310056832
  0.3270823188723503  0.9127425173722850  0.9256120310056832
  0.5770823188723504  0.1627425173722849  0.9256120310056832
  0.5770823188723504  0.4127425173722848  0.9256120310056832
  0.5770823188723504  0.6627425173722850  0.9256120310056832
  0.5770823188723504  0.9127425173722850  0.9256120310056832
  0.8270823188723504  0.1627425173722849  0.9256120310056832
  0.8270823188723504  0.4127425173722848  0.9256120310056832
  0.8270823188723504  0.6627425173722850  0.9256120310056832
  0.8270823188723504  0.9127425173722850  0.9256120310056832
  0.0062509281276484  0.0039242308277159  0.7410549899943117
  0.0062509281276484  0.2539242308277160  0.7410549899943117
  0.0062509281276484  0.5039242308277159  0.7410549899943117
  0.0062509281276484  0.7539242308277159  0.7410549899943117
  0.2562509281276484  0.0039242308277159  0.7410549899943117
  0.2562509281276484  0.2539242308277160  0.7410549899943117
  0.2562509281276484  0.5039242308277159  0.7410549899943117
  0.2562509281276484  0.7539242308277159  0.7410549899943117
  0.5062509281276483  0.0039242308277159  0.7410549899943117
  0.5062509281276483  0.2539242308277160  0.7410549899943117
  0.5062509281276483  0.5039242308277159  0.7410549899943117
  0.5062509281276483  0.7539242308277159  0.7410549899943117
  0.7562509281276484  0.0039242308277159  0.7410549899943117
  0.7562509281276484  0.2539242308277160  0.7410549899943117
  0.7562509281276484  0.5039242308277159  0.7410549899943117
  0.7562509281276484  0.7539242308277159  0.7410549899943117
 
  0.00000000E+00  0.00000000E+00  0.00000000E+00
  0.00000000E+00  0.00000000E+00  0.00000000E+00
  0.00000000E+00  0.00000000E+00  0.00000000E+00
  0.00000000E+00  0.00000000E+00  0.00000000E+00
  0.00000000E+00  0.00000000E+00  0.00000000E+00
  0.00000000E+00  0.00000000E+00  0.00000000E+00
  0.00000000E+00  0.00000000E+00  0.00000000E+00
  0.00000000E+00  0.00000000E+00  0.00000000E+00
  0.00000000E+00  0.00000000E+00  0.00000000E+00
  0.00000000E+00  0.00000000E+00  0.00000000E+00
  0.00000000E+00  0.00000000E+00  0.00000000E+00
  0.00000000E+00  0.00000000E+00  0.00000000E+00
  0.00000000E+00  0.00000000E+00  0.00000000E+00
  0.00000000E+00  0.00000000E+00  0.00000000E+00
  0.00000000E+00  0.00000000E+00  0.00000000E+00
  0.00000000E+00  0.00000000E+00  0.00000000E+00
  0.00000000E+00  0.00000000E+00  0.00000000E+00
  0.00000000E+00  0.00000000E+00  0.00000000E+00
  0.00000000E+00  0.00000000E+00  0.00000000E+00
  0.00000000E+00  0.00000000E+00  0.00000000E+00
  0.00000000E+00  0.00000000E+00  0.00000000E+00
  0.00000000E+00  0.00000000E+00  0.00000000E+00
  0.00000000E+00  0.00000000E+00  0.00000000E+00
  0.00000000E+00  0.00000000E+00  0.00000000E+00
  0.00000000E+00  0.00000000E+00  0.00000000E+00
  0.00000000E+00  0.00000000E+00  0.00000000E+00
  0.00000000E+00  0.00000000E+00  0.00000000E+00
  0.00000000E+00  0.00000000E+00  0.00000000E+00
  0.00000000E+00  0.00000000E+00  0.00000000E+00
  0.00000000E+00  0.00000000E+00  0.00000000E+00
  0.00000000E+00  0.00000000E+00  0.00000000E+00
  0.00000000E+00  0.00000000E+00  0.00000000E+00
  0.00000000E+00  0.00000000E+00  0.00000000E+00
  0.00000000E+00  0.00000000E+00  0.00000000E+00
  0.00000000E+00  0.00000000E+00  0.00000000E+00
  0.00000000E+00  0.00000000E+00  0.00000000E+00
  0.00000000E+00  0.00000000E+00  0.00000000E+00
  0.00000000E+00  0.00000000E+00  0.00000000E+00
  0.00000000E+00  0.00000000E+00  0.00000000E+00
  0.00000000E+00  0.00000000E+00  0.00000000E+00
  0.00000000E+00  0.00000000E+00  0.00000000E+00
  0.00000000E+00  0.00000000E+00  0.00000000E+00
  0.00000000E+00  0.00000000E+00  0.00000000E+00
  0.00000000E+00  0.00000000E+00  0.00000000E+00
  0.00000000E+00  0.00000000E+00  0.00000000E+00
  0.00000000E+00  0.00000000E+00  0.00000000E+00
  0.00000000E+00  0.00000000E+00  0.00000000E+00
  0.00000000E+00  0.00000000E+00  0.00000000E+00
  0.00000000E+00  0.00000000E+00  0.00000000E+00
  0.00000000E+00  0.00000000E+00  0.00000000E+00
  0.00000000E+00  0.00000000E+00  0.00000000E+00
  0.00000000E+00  0.00000000E+00  0.00000000E+00
  0.00000000E+00  0.00000000E+00  0.00000000E+00
  0.00000000E+00  0.00000000E+00  0.00000000E+00
  0.00000000E+00  0.00000000E+00  0.00000000E+00
  0.00000000E+00  0.00000000E+00  0.00000000E+00
  0.00000000E+00  0.00000000E+00  0.00000000E+00
  0.00000000E+00  0.00000000E+00  0.00000000E+00
  0.00000000E+00  0.00000000E+00  0.00000000E+00
  0.00000000E+00  0.00000000E+00  0.00000000E+00
  0.00000000E+00  0.00000000E+00  0.00000000E+00
  0.00000000E+00  0.00000000E+00  0.00000000E+00
  0.00000000E+00  0.00000000E+00  0.00000000E+00
  0.00000000E+00  0.00000000E+00  0.00000000E+00
  0.00000000E+00  0.00000000E+00  0.00000000E+00
  0.00000000E+00  0.00000000E+00  0.00000000E+00
  0.00000000E+00  0.00000000E+00  0.00000000E+00
  0.00000000E+00  0.00000000E+00  0.00000000E+00
  0.00000000E+00  0.00000000E+00  0.00000000E+00
  0.00000000E+00  0.00000000E+00  0.00000000E+00
  0.00000000E+00  0.00000000E+00  0.00000000E+00
  0.00000000E+00  0.00000000E+00  0.00000000E+00
  0.00000000E+00  0.00000000E+00  0.00000000E+00
  0.00000000E+00  0.00000000E+00  0.00000000E+00
  0.00000000E+00  0.00000000E+00  0.00000000E+00
  0.00000000E+00  0.00000000E+00  0.00000000E+00
  0.00000000E+00  0.00000000E+00  0.00000000E+00
  0.00000000E+00  0.00000000E+00  0.00000000E+00
  0.00000000E+00  0.00000000E+00  0.00000000E+00
  0.00000000E+00  0.00000000E+00  0.00000000E+00
  0.00000000E+00  0.00000000E+00  0.00000000E+00
  0.00000000E+00  0.00000000E+00  0.00000000E+00
  0.00000000E+00  0.00000000E+00  0.00000000E+00
  0.00000000E+00  0.00000000E+00  0.00000000E+00
  0.00000000E+00  0.00000000E+00  0.00000000E+00
  0.00000000E+00  0.00000000E+00  0.00000000E+00
  0.00000000E+00  0.00000000E+00  0.00000000E+00
  0.00000000E+00  0.00000000E+00  0.00000000E+00
  0.00000000E+00  0.00000000E+00  0.00000000E+00
  0.00000000E+00  0.00000000E+00  0.00000000E+00
  0.00000000E+00  0.00000000E+00  0.00000000E+00
  0.00000000E+00  0.00000000E+00  0.00000000E+00
  0.00000000E+00  0.00000000E+00  0.00000000E+00
  0.00000000E+00  0.00000000E+00  0.00000000E+00
  0.00000000E+00  0.00000000E+00  0.00000000E+00
  0.00000000E+00  0.00000000E+00  0.00000000E+00
  0.00000000E+00  0.00000000E+00  0.00000000E+00
  0.00000000E+00  0.00000000E+00  0.00000000E+00
  0.00000000E+00  0.00000000E+00  0.00000000E+00
  0.00000000E+00  0.00000000E+00  0.00000000E+00
  0.00000000E+00  0.00000000E+00  0.00000000E+00
  0.00000000E+00  0.00000000E+00  0.00000000E+00
  0.00000000E+00  0.00000000E+00  0.00000000E+00
  0.00000000E+00  0.00000000E+00  0.00000000E+00
  0.00000000E+00  0.00000000E+00  0.00000000E+00
  0.00000000E+00  0.00000000E+00  0.00000000E+00
  0.00000000E+00  0.00000000E+00  0.00000000E+00
  0.00000000E+00  0.00000000E+00  0.00000000E+00
  0.00000000E+00  0.00000000E+00  0.00000000E+00
  0.00000000E+00  0.00000000E+00  0.00000000E+00
  0.00000000E+00  0.00000000E+00  0.00000000E+00
  0.00000000E+00  0.00000000E+00  0.00000000E+00
  0.00000000E+00  0.00000000E+00  0.00000000E+00
  0.00000000E+00  0.00000000E+00  0.00000000E+00
  0.00000000E+00  0.00000000E+00  0.00000000E+00
  0.00000000E+00  0.00000000E+00  0.00000000E+00
  0.00000000E+00  0.00000000E+00  0.00000000E+00
  0.00000000E+00  0.00000000E+00  0.00000000E+00
  0.00000000E+00  0.00000000E+00  0.00000000E+00
  0.00000000E+00  0.00000000E+00  0.00000000E+00
  0.00000000E+00  0.00000000E+00  0.00000000E+00
  0.00000000E+00  0.00000000E+00  0.00000000E+00
  0.00000000E+00  0.00000000E+00  0.00000000E+00
  0.00000000E+00  0.00000000E+00  0.00000000E+00
  0.00000000E+00  0.00000000E+00  0.00000000E+00
  0.00000000E+00  0.00000000E+00  0.00000000E+00
  0.00000000E+00  0.00000000E+00  0.00000000E+00
  0.00000000E+00  0.00000000E+00  0.00000000E+00
  0.00000000E+00  0.00000000E+00  0.00000000E+00
  0.00000000E+00  0.00000000E+00  0.00000000E+00
  0.00000000E+00  0.00000000E+00  0.00000000E+00
  0.00000000E+00  0.00000000E+00  0.00000000E+00
  0.00000000E+00  0.00000000E+00  0.00000000E+00
  0.00000000E+00  0.00000000E+00  0.00000000E+00
  0.00000000E+00  0.00000000E+00  0.00000000E+00
  0.00000000E+00  0.00000000E+00  0.00000000E+00
  0.00000000E+00  0.00000000E+00  0.00000000E+00
  0.00000000E+00  0.00000000E+00  0.00000000E+00
  0.00000000E+00  0.00000000E+00  0.00000000E+00
  0.00000000E+00  0.00000000E+00  0.00000000E+00
  0.00000000E+00  0.00000000E+00  0.00000000E+00
  0.00000000E+00  0.00000000E+00  0.00000000E+00
  0.00000000E+00  0.00000000E+00  0.00000000E+00
  0.00000000E+00  0.00000000E+00  0.00000000E+00
  0.00000000E+00  0.00000000E+00  0.00000000E+00
  0.00000000E+00  0.00000000E+00  0.00000000E+00
  0.00000000E+00  0.00000000E+00  0.00000000E+00
  0.00000000E+00  0.00000000E+00  0.00000000E+00
  0.00000000E+00  0.00000000E+00  0.00000000E+00
  0.00000000E+00  0.00000000E+00  0.00000000E+00
  0.00000000E+00  0.00000000E+00  0.00000000E+00
  0.00000000E+00  0.00000000E+00  0.00000000E+00
  0.00000000E+00  0.00000000E+00  0.00000000E+00
  0.00000000E+00  0.00000000E+00  0.00000000E+00
  0.00000000E+00  0.00000000E+00  0.00000000E+00
  0.00000000E+00  0.00000000E+00  0.00000000E+00
  0.00000000E+00  0.00000000E+00  0.00000000E+00
  0.00000000E+00  0.00000000E+00  0.00000000E+00
  0.00000000E+00  0.00000000E+00  0.00000000E+00
  0.00000000E+00  0.00000000E+00  0.00000000E+00
  0.00000000E+00  0.00000000E+00  0.00000000E+00
  0.00000000E+00  0.00000000E+00  0.00000000E+00
  0.00000000E+00  0.00000000E+00  0.00000000E+00
  0.00000000E+00  0.00000000E+00  0.00000000E+00
  0.00000000E+00  0.00000000E+00  0.00000000E+00
  0.00000000E+00  0.00000000E+00  0.00000000E+00
  0.00000000E+00  0.00000000E+00  0.00000000E+00
  0.00000000E+00  0.00000000E+00  0.00000000E+00
  0.00000000E+00  0.00000000E+00  0.00000000E+00
  0.00000000E+00  0.00000000E+00  0.00000000E+00
  0.00000000E+00  0.00000000E+00  0.00000000E+00
  0.00000000E+00  0.00000000E+00  0.00000000E+00
  0.00000000E+00  0.00000000E+00  0.00000000E+00
  0.00000000E+00  0.00000000E+00  0.00000000E+00
  0.00000000E+00  0.00000000E+00  0.00000000E+00
  0.00000000E+00  0.00000000E+00  0.00000000E+00
  0.00000000E+00  0.00000000E+00  0.00000000E+00
  0.00000000E+00  0.00000000E+00  0.00000000E+00
  0.00000000E+00  0.00000000E+00  0.00000000E+00
  0.00000000E+00  0.00000000E+00  0.00000000E+00
  0.00000000E+00  0.00000000E+00  0.00000000E+00
  0.00000000E+00  0.00000000E+00  0.00000000E+00
  0.00000000E+00  0.00000000E+00  0.00000000E+00
  0.00000000E+00  0.00000000E+00  0.00000000E+00
  0.00000000E+00  0.00000000E+00  0.00000000E+00
  0.00000000E+00  0.00000000E+00  0.00000000E+00
  0.00000000E+00  0.00000000E+00  0.00000000E+00
  0.00000000E+00  0.00000000E+00  0.00000000E+00
  0.00000000E+00  0.00000000E+00  0.00000000E+00
  0.00000000E+00  0.00000000E+00  0.00000000E+00
  0.00000000E+00  0.00000000E+00  0.00000000E+00
  0.00000000E+00  0.00000000E+00  0.00000000E+00
